NAME: random-38-24257
TYPE: TSP
COMMENT: size=38 seed=24257
DIMENSION: 78
EDGE_WEIGHT_TYPE: EUC_2D
NODE_COORD_SECTION
+0 399 63
-0 399 63
+1 829 687
-1 581 497
+2 592 429
-2 686 852
+3 512 608
-3 147 615
+4 879 11
-4 780 497
+5 349 60
-5 171 206
+6 245 474
-6 633 732
+7 482 919
-7 522 546
+8 782 922
-8 985 914
+9 388 137
-9 570 283
+10 695 753
-10 738 74
+11 104 804
-11 909 767
+12 953 607
-12 233 885
+13 707 412
-13 718 344
+14 621 594
-14 272 628
+15 786 176
-15 712 682
+16 853 867
-16 704 456
+17 713 945
-17 771 371
+18 708 939
-18 355 96
+19 416 294
-19 841 679
+20 795 278
-20 205 504
+21 402 425
-21 859 216
+22 686 148
-22 884 401
+23 227 524
-23 578 22
+24 247 45
-24 362 836
+25 406 79
-25 845 521
+26 193 704
-26 928 782
+27 850 451
-27 935 670
+28 21 893
-28 263 611
+29 369 23
-29 384 423
+30 891 129
-30 74 353
+31 318 730
-31 791 317
+32 153 40
-32 889 853
+33 112 995
-33 493 962
+34 681 18
-34 226 940
+35 472 342
-35 636 978
+36 68 25
-36 800 309
+37 690 239
-37 819 675
+38 536 268
-38 310 503
PRECEDENCE_SECTION
+0 -0
+1 -1
+2 -2
+3 -3
+4 -4
+5 -5
+6 -6
+7 -7
+8 -8
+9 -9
+10 -10
+11 -11
+12 -12
+13 -13
+14 -14
+15 -15
+16 -16
+17 -17
+18 -18
+19 -19
+20 -20
+21 -21
+22 -22
+23 -23
+24 -24
+25 -25
+26 -26
+27 -27
+28 -28
+29 -29
+30 -30
+31 -31
+32 -32
+33 -33
+34 -34
+35 -35
+36 -36
+37 -37
+38 -38
EOF
